10  5
 3 10  1  3  2 14  0  4  4  8  14 187   5
 0 10  3  6  2 15  1  8  4 16  12 196  10
 3  9  0  6  2 10  1  4  4 15  31 190  10
 1  6  3  5  2 15  0  7  4 15   7 167   5
 0  5  1  5  2 13  3  9  4 16   1 190  10
 3  3  0  9  2 15  1 10  4 16   3 175   5
 1  5  3  6  2 12  0  4  4 10  21 180  10
 0 10  3  9  2  8  1  8  4 11   3 172  10
 0  3  3 11  2 15  1  8  4 10  30 176   5
 0 10  3  4  2 11  1  8  4 16  33 165   5
